(set-info :status sat)
(declare-const symbol_10 (_ BitVec 32))
(declare-const symbol_4 (_ BitVec 32))
(declare-const symbol_15 (_ BitVec 32))
(declare-const symbol_0 (_ BitVec 32))
(declare-const symbol_14 (_ BitVec 32))
(declare-const symbol_24 (_ BitVec 32))
(declare-const symbol_6 (_ BitVec 32))
(declare-const symbol_22 (_ BitVec 32))
(declare-const symbol_18 (_ BitVec 32))
(declare-const symbol_2 (_ BitVec 32))
(declare-const symbol_20 (_ BitVec 32))
(declare-const symbol_12 (_ BitVec 32))
(declare-const symbol_8 (_ BitVec 32))
(assert (not (= symbol_24 (_ bv13 32))))
(assert (not (not (= symbol_22 (_ bv13 32)))))
(assert (not (not (= symbol_20 (_ bv13 32)))))
(assert (not (not (= symbol_18 (_ bv13 32)))))
(assert (not (not (= symbol_15 (_ bv13 32)))))
(assert (not (not (= symbol_14 (_ bv13 32)))))
(assert (not (not (= symbol_12 (_ bv13 32)))))
(assert (not (not (= symbol_10 (_ bv13 32)))))
(assert (not (not (= symbol_8 (_ bv13 32)))))
(assert (not (not (= symbol_6 (_ bv13 32)))))
(assert (not (not (= symbol_4 (_ bv13 32)))))
(assert (not (not (= symbol_2 (_ bv13 32)))))
(assert (not (not (= symbol_0 (_ bv1 32)))))
(assert (not (= symbol_0 (_ bv13 32))))
(check-sat)